1081
126 76
49 17
140 94
90 61
19 34
54 31
84 21
22 81
111 50
163 26
151 62
126 99
122 29
121 98
28 75
31 9
93 72
19 4
5 36
45 45
53 16
23 77
73 95
129 31
31 53
187 43
86 68
202 36
166 82
81 80
102 97
133 6
10 67
44 16
50 45
199 14
23 84
16 91
129 27
10 7
57 22
42 93
216 66
154 91
99 15
38 57
183 85
137 98
187 33
154 75
95 71
4 24
19 57
72 13
151 59
107 87
5 44
12 24
48 75
46 38
82 35
26 62
62 54
70 11
133 63
47 22
47 100
209 8
145 4
168 84
66 88
100 8
4 49
87 47
39 86
98 87
129 93
190 77
113 18
55 44
20 71
57 29
84 10
190 45
148 51
60 93
55 48
126 22
145 85
75 40
151 93
29 95
4 96
104 97
123 44
127 56
157 50
117 68
149 49
45 43
106 19
38 32
78 83
202 14
127 20
34 52
34 99
130 70
161 14
209 11
122 94
163 51
14 21
121 97
48 60
216 95
99 46
141 22
25 4
15 5
